(set-info :smt-lib-version 2.6)
(set-logic QF_S)
(set-info :source |
Generated by: Murphy Berzish, Mitja Kulczynski, Federico Mora, Florin Manea, Joel Day, Dirk Nowotka, Vijay Ganesh, Zhengyang Lu
Generated on: 2020-10-01
Description: Translated from a collection of real-world regex queries, AutomataArk, collected by Loris D’Antoni and Fang Wang: https://github.com/lorisdanto/automatark
Application: Evaluate solvers on real-world regex queries
Target solver: Z3str3RE, CVC4, OSTRICH, Z3seq, Z3str3, Z3-Trau
Publications: Berzish, M., Kulczynski, M., Mora, F., Manea, F., Day, J. D., Nowotka, D., & Ganesh, V. (2021, July). An SMT solver for regular expressions and linear arithmetic over string length. In CAV 2021.
|)
(set-info :license "https://creativecommons.org/licenses/by/4.0/")
(set-info :category "industrial")
(set-info :status unsat)

(declare-const X String)
(assert (str.in_re X (re.++ (str.to_re "passcorrect;") (re.+ (re.union (str.to_re " ") (str.to_re "\u{9}") (str.to_re "\u{a}") (str.to_re "\u{c}") (str.to_re "\u{d}"))) (str.to_re "/cbn/node=Host:?search=version\u{a}"))))
(assert (not (str.in_re X (re.++ (re.union (re.++ (re.opt (str.to_re "0")) (re.range "1" "9")) (re.++ (str.to_re "1") (re.range "0" "2")) (re.++ (str.to_re "2") (re.range "0" "3"))) (str.to_re ":") (re.union (re.++ (re.range "0" "5") (re.range "0" "9")) (re.range "1" "9")) (str.to_re "\u{a}")))))
(assert (str.in_re X (re.++ (str.to_re "/") (re.union (str.to_re "\u{13}\u{0}") (str.to_re "\u{0}\u{5c}")) (str.to_re "\u{0}m\u{0}q\u{0}r\u{0}t\u{0}.\u{0}d\u{0}l\u{0}l\u{0}\u{0}\u{0}/i\u{a}"))))
(assert (not (str.in_re X (re.++ (str.to_re "{") ((_ re.loop 8 8) (re.union (re.range "a" "f") (re.range "A" "F") (re.range "0" "9"))) (str.to_re "-") ((_ re.loop 4 4) (re.union (re.range "a" "f") (re.range "A" "F") (re.range "0" "9"))) (str.to_re "-") ((_ re.loop 4 4) (re.union (re.range "a" "f") (re.range "A" "F") (re.range "0" "9"))) (str.to_re "-") ((_ re.loop 4 4) (re.union (re.range "a" "f") (re.range "A" "F") (re.range "0" "9"))) (str.to_re "-") ((_ re.loop 12 12) (re.union (re.range "a" "f") (re.range "A" "F") (re.range "0" "9"))) (str.to_re "}\u{a}")))))
(assert (not (str.in_re X (re.union (re.++ (re.union (re.range "a" "z") (re.range "A" "Z")) (re.* (re.union (re.range "a" "z") (re.range "A" "Z") (re.range "0" "9") (str.to_re "_")))) (re.++ (str.to_re "\u{a}_") (re.+ (re.union (re.range "a" "z") (re.range "A" "Z") (re.range "0" "9") (str.to_re "_"))))))))
(check-sat)

(exit)
